
Gurobi 8.1.0 (win64, Python) logging started 02/20/19 11:19:44

Academic license - for non-commercial use only

Gurobi 8.1.0 (win64, Python) logging started 02/20/19 11:21:08

Academic license - for non-commercial use only

Gurobi 8.1.0 (win64, Python) logging started 02/20/19 11:25:10

Academic license - for non-commercial use only

Gurobi 8.1.0 (win64, Python) logging started 02/20/19 11:25:32

Academic license - for non-commercial use only

Gurobi 8.1.0 (win64, Python) logging started 02/20/19 11:26:50

Academic license - for non-commercial use only

Gurobi 8.1.0 (win64, Python) logging started 02/20/19 11:27:35

Academic license - for non-commercial use only

Gurobi 8.1.0 (win64, Python) logging started 03/03/19 14:29:27

Academic license - for non-commercial use only

Gurobi 8.1.0 (win64, Python) logging started 03/03/19 14:30:45

Academic license - for non-commercial use only

Gurobi 8.1.0 (win64, Python) logging started 03/03/19 14:32:59

Academic license - for non-commercial use only

Gurobi 8.1.0 (win64, Python) logging started 03/03/19 14:42:34

Academic license - for non-commercial use only

Gurobi 8.1.0 (win64, Python) logging started 03/04/19 11:23:30

Academic license - for non-commercial use only

Gurobi 8.1.0 (win64, Python) logging started 03/04/19 11:23:55

Academic license - for non-commercial use only

Gurobi 8.1.0 (win64, Python) logging started 03/04/19 11:31:14

Academic license - for non-commercial use only

Gurobi 8.1.0 (win64, Python) logging started 03/04/19 11:32:03

Academic license - for non-commercial use only

Gurobi 8.1.0 (win64, Python) logging started 03/04/19 15:35:33

Academic license - for non-commercial use only

Gurobi 8.1.0 (win64, Python) logging started 03/04/19 15:35:56

Academic license - for non-commercial use only

Gurobi 8.1.0 (win64, Python) logging started 03/05/19 13:26:04

Academic license - for non-commercial use only

Gurobi 8.1.0 (win64, Python) logging started 03/05/19 13:26:56

Academic license - for non-commercial use only

Gurobi 8.1.0 (win64, Python) logging started 03/06/19 17:37:06

Academic license - for non-commercial use only

Gurobi 8.1.0 (win64, Python) logging started 03/06/19 17:43:38

Academic license - for non-commercial use only

Gurobi 8.1.0 (win64, Python) logging started 03/06/19 17:44:03

Academic license - for non-commercial use only
